100 8
604 902
189 519
657 188
879 393
865 136
933 416
356 400
407 109
296 343
336 58
751 709
180 545
135 559
612 746
400 774
583 80
683 721
465 390
337 302
366 50
149 525
300 660
723 408
451 46
793 293
751 98
814 471
585 418
304 416
414 188
575 851
305 460
321 117
206 366
718 886
783 213
624 703
199 554
301 629
522 250
294 600
803 356
638 784
330 314
291 535
296 383
503 714
692 224
579 359
954 366
432 515
277 616
100 533
439 395
76 439
645 445
800 303
33 629
812 157
332 315
777 277
622 476
291 641
869 278
454 498
383 476
582 415
578 206
528 350
406 709
662 147
799 454
874 251
724 805
484 754
586 885
621 767
315 346
107 499
439 317
535 494
710 419
795 136
602 240
236 378
275 781
303 275
198 262
431 182
585 803
676 507
91 477
495 217
448 98
57 510
358 350
684 779
596 893
629 740
551 883
